p edge 80 1561
e 2 1
e 3 1
e 3 2
e 5 1
e 5 3
e 5 4
e 6 1
e 6 2
e 6 4
e 6 5
e 7 1
e 7 4
e 7 5
e 7 6
e 8 1
e 8 4
e 8 5
e 9 2
e 9 4
e 9 7
e 10 1
e 10 2
e 10 7
e 10 9
e 11 1
e 11 4
e 11 5
e 11 6
e 11 7
e 11 8
e 11 10
e 12 6
e 12 7
e 12 10
e 12 11
e 13 1
e 13 2
e 13 3
e 13 4
e 13 5
e 13 10
e 14 1
e 14 2
e 14 3
e 14 4
e 14 6
e 14 8
e 14 12
e 14 13
e 15 1
e 15 4
e 15 5
e 15 6
e 15 7
e 15 8
e 15 9
e 15 10
e 15 12
e 16 4
e 16 5
e 16 7
e 16 8
e 16 10
e 16 11
e 16 12
e 16 13
e 16 14
e 16 15
e 17 3
e 17 4
e 17 5
e 17 7
e 17 11
e 17 13
e 17 15
e 17 16
e 18 2
e 18 3
e 18 7
e 18 12
e 18 13
e 18 15
e 18 17
e 19 1
e 19 2
e 19 8
e 19 9
e 19 14
e 19 18
e 20 2
e 20 3
e 20 4
e 20 6
e 20 12
e 20 13
e 20 16
e 21 5
e 21 7
e 21 10
e 21 12
e 21 17
e 21 18
e 22 1
e 22 2
e 22 4
e 22 6
e 22 13
e 22 17
e 22 20
e 23 1
e 23 3
e 23 7
e 23 9
e 23 10
e 23 11
e 23 14
e 23 15
e 23 19
e 23 21
e 24 4
e 24 5
e 24 6
e 24 7
e 24 8
e 24 12
e 24 13
e 24 14
e 24 16
e 24 17
e 24 19
e 24 21
e 24 22
e 25 2
e 25 3
e 25 5
e 25 7
e 25 9
e 25 11
e 25 12
e 25 14
e 25 16
e 25 18
e 25 19
e 25 20
e 25 21
e 25 23
e 26 3
e 26 4
e 26 5
e 26 10
e 26 15
e 26 19
e 26 21
e 26 23
e 26 24
e 27 5
e 27 7
e 27 8
e 27 9
e 27 10
e 27 12
e 27 13
e 27 14
e 27 15
e 27 16
e 27 18
e 27 19
e 27 20
e 27 21
e 27 22
e 27 24
e 27 25
e 28 2
e 28 4
e 28 7
e 28 10
e 28 11
e 28 16
e 28 18
e 28 23
e 28 25
e 28 26
e 28 27
e 29 3
e 29 4
e 29 6
e 29 7
e 29 9
e 29 10
e 29 11
e 29 12
e 29 13
e 29 14
e 29 15
e 29 17
e 29 18
e 29 20
e 29 21
e 29 23
e 29 24
e 29 25
e 29 27
e 29 28
e 30 1
e 30 5
e 30 6
e 30 7
e 30 9
e 30 12
e 30 14
e 30 15
e 30 17
e 30 19
e 30 21
e 30 22
e 30 23
e 30 24
e 30 27
e 31 1
e 31 2
e 31 4
e 31 5
e 31 6
e 31 7
e 31 11
e 31 12
e 31 13
e 31 14
e 31 15
e 31 16
e 31 18
e 31 21
e 31 23
e 31 24
e 31 27
e 31 28
e 32 1
e 32 4
e 32 5
e 32 7
e 32 14
e 32 16
e 32 20
e 32 21
e 32 22
e 32 23
e 32 25
e 32 29
e 32 30
e 33 1
e 33 4
e 33 6
e 33 9
e 33 13
e 33 14
e 33 16
e 33 22
e 33 24
e 33 26
e 33 28
e 33 30
e 33 32
e 34 5
e 34 6
e 34 7
e 34 9
e 34 11
e 34 13
e 34 14
e 34 15
e 34 16
e 34 19
e 34 21
e 34 24
e 34 26
e 34 27
e 34 28
e 34 29
e 34 30
e 34 31
e 34 33
e 35 2
e 35 4
e 35 8
e 35 10
e 35 14
e 35 15
e 35 16
e 35 17
e 35 20
e 35 22
e 35 24
e 35 25
e 35 26
e 35 28
e 35 32
e 35 33
e 35 34
e 36 5
e 36 12
e 36 14
e 36 15
e 36 18
e 36 22
e 36 31
e 37 1
e 37 3
e 37 10
e 37 11
e 37 15
e 37 17
e 37 18
e 37 20
e 37 22
e 37 28
e 37 29
e 37 31
e 37 35
e 38 2
e 38 10
e 38 11
e 38 12
e 38 13
e 38 14
e 38 15
e 38 17
e 38 18
e 38 19
e 38 21
e 38 25
e 38 26
e 38 29
e 38 32
e 38 33
e 38 35
e 38 36
e 39 1
e 39 2
e 39 3
e 39 5
e 39 6
e 39 7
e 39 8
e 39 11
e 39 13
e 39 14
e 39 17
e 39 18
e 39 20
e 39 22
e 39 23
e 39 24
e 39 25
e 39 28
e 39 30
e 39 35
e 39 36
e 39 37
e 39 38
e 40 2
e 40 4
e 40 6
e 40 8
e 40 9
e 40 14
e 40 16
e 40 17
e 40 18
e 40 19
e 40 25
e 40 26
e 40 27
e 40 28
e 40 29
e 40 32
e 40 33
e 40 34
e 40 36
e 40 37
e 40 38
e 40 39
e 41 1
e 41 2
e 41 3
e 41 4
e 41 5
e 41 6
e 41 8
e 41 10
e 41 12
e 41 13
e 41 16
e 41 17
e 41 28
e 41 34
e 41 35
e 41 36
e 41 37
e 41 38
e 41 40
e 42 7
e 42 8
e 42 9
e 42 13
e 42 14
e 42 15
e 42 16
e 42 18
e 42 20
e 42 23
e 42 24
e 42 25
e 42 26
e 42 27
e 42 29
e 42 36
e 42 37
e 42 38
e 42 41
e 43 2
e 43 5
e 43 7
e 43 8
e 43 9
e 43 13
e 43 14
e 43 15
e 43 18
e 43 21
e 43 22
e 43 23
e 43 25
e 43 27
e 43 28
e 43 29
e 43 31
e 43 34
e 43 38
e 43 39
e 43 40
e 44 2
e 44 3
e 44 5
e 44 6
e 44 9
e 44 10
e 44 11
e 44 13
e 44 14
e 44 15
e 44 16
e 44 17
e 44 18
e 44 21
e 44 22
e 44 25
e 44 28
e 44 29
e 44 32
e 44 34
e 44 35
e 44 38
e 44 39
e 44 40
e 45 2
e 45 4
e 45 8
e 45 9
e 45 12
e 45 14
e 45 15
e 45 17
e 45 18
e 45 19
e 45 21
e 45 23
e 45 24
e 45 26
e 45 31
e 45 32
e 45 37
e 45 38
e 45 39
e 45 41
e 45 42
e 45 43
e 46 1
e 46 2
e 46 7
e 46 8
e 46 11
e 46 12
e 46 15
e 46 16
e 46 17
e 46 18
e 46 19
e 46 20
e 46 21
e 46 27
e 46 29
e 46 30
e 46 34
e 46 35
e 46 37
e 46 38
e 46 42
e 46 44
e 47 2
e 47 3
e 47 8
e 47 9
e 47 10
e 47 11
e 47 13
e 47 14
e 47 15
e 47 17
e 47 24
e 47 25
e 47 27
e 47 28
e 47 31
e 47 32
e 47 34
e 47 36
e 47 39
e 47 40
e 47 46
e 48 4
e 48 6
e 48 8
e 48 11
e 48 12
e 48 25
e 48 26
e 48 29
e 48 30
e 48 31
e 48 34
e 48 36
e 48 41
e 48 42
e 49 2
e 49 5
e 49 8
e 49 9
e 49 10
e 49 11
e 49 17
e 49 18
e 49 21
e 49 22
e 49 26
e 49 27
e 49 29
e 49 32
e 49 33
e 49 34
e 49 36
e 49 39
e 49 40
e 49 42
e 49 43
e 49 44
e 49 46
e 49 48
e 50 1
e 50 2
e 50 10
e 50 11
e 50 12
e 50 14
e 50 16
e 50 17
e 50 18
e 50 21
e 50 22
e 50 23
e 50 25
e 50 27
e 50 28
e 50 29
e 50 30
e 50 32
e 50 33
e 50 36
e 50 38
e 50 41
e 50 42
e 50 45
e 50 46
e 50 47
e 50 49
e 51 1
e 51 5
e 51 6
e 51 7
e 51 8
e 51 10
e 51 11
e 51 12
e 51 14
e 51 18
e 51 19
e 51 20
e 51 21
e 51 23
e 51 25
e 51 27
e 51 29
e 51 30
e 51 31
e 51 36
e 51 37
e 51 38
e 51 40
e 51 41
e 51 43
e 51 44
e 51 47
e 51 48
e 52 2
e 52 4
e 52 5
e 52 8
e 52 11
e 52 12
e 52 14
e 52 15
e 52 16
e 52 17
e 52 18
e 52 21
e 52 25
e 52 26
e 52 27
e 52 29
e 52 32
e 52 33
e 52 36
e 52 37
e 52 38
e 52 39
e 52 43
e 52 47
e 52 48
e 52 49
e 52 50
e 52 51
e 53 1
e 53 4
e 53 9
e 53 12
e 53 13
e 53 15
e 53 17
e 53 18
e 53 22
e 53 24
e 53 25
e 53 26
e 53 27
e 53 28
e 53 29
e 53 31
e 53 32
e 53 33
e 53 35
e 53 36
e 53 39
e 53 40
e 53 41
e 53 42
e 53 43
e 53 45
e 53 47
e 53 48
e 53 49
e 53 51
e 53 52
e 54 2
e 54 5
e 54 8
e 54 12
e 54 13
e 54 14
e 54 15
e 54 17
e 54 18
e 54 22
e 54 24
e 54 27
e 54 30
e 54 31
e 54 34
e 54 35
e 54 37
e 54 38
e 54 39
e 54 40
e 54 44
e 54 46
e 54 47
e 54 51
e 54 52
e 54 53
e 55 6
e 55 7
e 55 9
e 55 10
e 55 12
e 55 14
e 55 15
e 55 17
e 55 18
e 55 19
e 55 22
e 55 23
e 55 26
e 55 28
e 55 29
e 55 31
e 55 33
e 55 35
e 55 38
e 55 39
e 55 46
e 55 47
e 55 48
e 55 49
e 55 50
e 55 51
e 55 54
e 56 2
e 56 5
e 56 7
e 56 8
e 56 9
e 56 10
e 56 12
e 56 13
e 56 16
e 56 19
e 56 20
e 56 21
e 56 23
e 56 27
e 56 31
e 56 32
e 56 33
e 56 37
e 56 38
e 56 40
e 56 42
e 56 46
e 56 49
e 56 50
e 56 51
e 56 53
e 56 54
e 56 55
e 57 1
e 57 2
e 57 3
e 57 4
e 57 6
e 57 7
e 57 8
e 57 11
e 57 12
e 57 15
e 57 17
e 57 19
e 57 20
e 57 21
e 57 22
e 57 25
e 57 26
e 57 31
e 57 32
e 57 33
e 57 35
e 57 36
e 57 37
e 57 39
e 57 40
e 57 44
e 57 45
e 57 46
e 57 50
e 57 53
e 57 54
e 57 56
e 58 1
e 58 2
e 58 6
e 58 8
e 58 12
e 58 13
e 58 15
e 58 16
e 58 19
e 58 25
e 58 26
e 58 27
e 58 29
e 58 32
e 58 39
e 58 41
e 58 42
e 58 44
e 58 45
e 58 51
e 58 52
e 58 55
e 58 56
e 59 1
e 59 2
e 59 3
e 59 4
e 59 5
e 59 7
e 59 11
e 59 13
e 59 18
e 59 22
e 59 23
e 59 24
e 59 25
e 59 26
e 59 29
e 59 30
e 59 33
e 59 36
e 59 38
e 59 42
e 59 43
e 59 44
e 59 45
e 59 46
e 59 47
e 59 49
e 59 50
e 59 51
e 59 54
e 59 56
e 60 1
e 60 3
e 60 5
e 60 6
e 60 7
e 60 8
e 60 9
e 60 10
e 60 12
e 60 13
e 60 15
e 60 17
e 60 18
e 60 20
e 60 23
e 60 27
e 60 32
e 60 33
e 60 35
e 60 36
e 60 38
e 60 39
e 60 40
e 60 42
e 60 45
e 60 46
e 60 51
e 60 52
e 60 54
e 60 55
e 61 1
e 61 4
e 61 6
e 61 11
e 61 12
e 61 13
e 61 15
e 61 16
e 61 17
e 61 19
e 61 21
e 61 22
e 61 23
e 61 24
e 61 25
e 61 28
e 61 29
e 61 31
e 61 34
e 61 35
e 61 37
e 61 38
e 61 40
e 61 41
e 61 43
e 61 45
e 61 46
e 61 47
e 61 48
e 61 49
e 61 50
e 61 52
e 61 54
e 61 56
e 61 58
e 62 1
e 62 4
e 62 5
e 62 9
e 62 11
e 62 13
e 62 14
e 62 15
e 62 16
e 62 17
e 62 23
e 62 24
e 62 25
e 62 26
e 62 27
e 62 28
e 62 31
e 62 37
e 62 38
e 62 40
e 62 42
e 62 43
e 62 44
e 62 45
e 62 46
e 62 50
e 62 53
e 62 57
e 62 59
e 62 61
e 63 1
e 63 3
e 63 4
e 63 8
e 63 12
e 63 14
e 63 15
e 63 16
e 63 17
e 63 18
e 63 22
e 63 23
e 63 24
e 63 26
e 63 27
e 63 28
e 63 29
e 63 30
e 63 31
e 63 32
e 63 38
e 63 39
e 63 40
e 63 41
e 63 43
e 63 46
e 63 48
e 63 49
e 63 52
e 63 53
e 63 56
e 63 59
e 63 60
e 64 3
e 64 4
e 64 5
e 64 6
e 64 7
e 64 8
e 64 21
e 64 24
e 64 27
e 64 29
e 64 30
e 64 33
e 64 35
e 64 37
e 64 43
e 64 44
e 64 45
e 64 49
e 64 52
e 64 54
e 64 55
e 64 56
e 64 59
e 64 61
e 64 63
e 65 1
e 65 2
e 65 3
e 65 6
e 65 10
e 65 15
e 65 19
e 65 21
e 65 23
e 65 26
e 65 29
e 65 30
e 65 34
e 65 38
e 65 39
e 65 43
e 65 44
e 65 45
e 65 47
e 65 49
e 65 52
e 65 53
e 65 54
e 65 59
e 65 60
e 65 61
e 65 62
e 65 63
e 65 64
e 66 4
e 66 6
e 66 7
e 66 9
e 66 10
e 66 11
e 66 12
e 66 13
e 66 15
e 66 20
e 66 23
e 66 24
e 66 25
e 66 28
e 66 30
e 66 34
e 66 37
e 66 38
e 66 39
e 66 40
e 66 44
e 66 46
e 66 47
e 66 50
e 66 53
e 66 54
e 66 55
e 66 56
e 66 57
e 66 59
e 66 60
e 66 61
e 67 5
e 67 9
e 67 11
e 67 12
e 67 13
e 67 17
e 67 18
e 67 22
e 67 23
e 67 24
e 67 25
e 67 26
e 67 27
e 67 29
e 67 30
e 67 31
e 67 32
e 67 33
e 67 34
e 67 35
e 67 36
e 67 38
e 67 40
e 67 42
e 67 43
e 67 45
e 67 48
e 67 49
e 67 50
e 67 51
e 67 52
e 67 55
e 67 58
e 67 60
e 67 65
e 68 4
e 68 6
e 68 7
e 68 8
e 68 9
e 68 10
e 68 11
e 68 13
e 68 15
e 68 19
e 68 21
e 68 23
e 68 24
e 68 25
e 68 29
e 68 31
e 68 32
e 68 33
e 68 34
e 68 36
e 68 39
e 68 41
e 68 43
e 68 45
e 68 49
e 68 50
e 68 53
e 68 55
e 68 56
e 68 57
e 68 59
e 68 60
e 68 67
e 69 4
e 69 6
e 69 7
e 69 8
e 69 13
e 69 17
e 69 18
e 69 20
e 69 22
e 69 23
e 69 24
e 69 25
e 69 26
e 69 28
e 69 30
e 69 31
e 69 34
e 69 35
e 69 36
e 69 38
e 69 40
e 69 41
e 69 45
e 69 48
e 69 49
e 69 52
e 69 58
e 69 61
e 69 63
e 70 1
e 70 2
e 70 6
e 70 8
e 70 9
e 70 10
e 70 12
e 70 16
e 70 17
e 70 18
e 70 20
e 70 22
e 70 23
e 70 25
e 70 26
e 70 27
e 70 29
e 70 30
e 70 31
e 70 32
e 70 34
e 70 41
e 70 42
e 70 43
e 70 47
e 70 53
e 70 54
e 70 55
e 70 61
e 70 62
e 70 65
e 71 1
e 71 9
e 71 10
e 71 16
e 71 21
e 71 23
e 71 26
e 71 27
e 71 29
e 71 30
e 71 32
e 71 35
e 71 37
e 71 40
e 71 43
e 71 47
e 71 48
e 71 55
e 71 60
e 71 61
e 71 64
e 71 66
e 71 67
e 72 1
e 72 3
e 72 4
e 72 8
e 72 11
e 72 13
e 72 14
e 72 15
e 72 18
e 72 20
e 72 21
e 72 22
e 72 23
e 72 24
e 72 30
e 72 31
e 72 32
e 72 34
e 72 35
e 72 36
e 72 38
e 72 39
e 72 40
e 72 42
e 72 44
e 72 46
e 72 48
e 72 51
e 72 52
e 72 55
e 72 56
e 72 60
e 72 65
e 72 69
e 72 70
e 72 71
e 73 3
e 73 5
e 73 7
e 73 9
e 73 14
e 73 15
e 73 16
e 73 17
e 73 18
e 73 20
e 73 21
e 73 23
e 73 24
e 73 26
e 73 28
e 73 30
e 73 31
e 73 33
e 73 38
e 73 40
e 73 41
e 73 42
e 73 44
e 73 47
e 73 49
e 73 53
e 73 54
e 73 55
e 73 57
e 73 59
e 73 61
e 73 62
e 73 63
e 73 66
e 73 67
e 73 68
e 73 70
e 73 72
e 74 1
e 74 3
e 74 5
e 74 8
e 74 9
e 74 10
e 74 11
e 74 12
e 74 13
e 74 14
e 74 16
e 74 18
e 74 19
e 74 22
e 74 27
e 74 28
e 74 30
e 74 31
e 74 32
e 74 35
e 74 38
e 74 39
e 74 43
e 74 44
e 74 45
e 74 46
e 74 48
e 74 49
e 74 53
e 74 54
e 74 59
e 74 60
e 74 61
e 74 62
e 74 64
e 74 66
e 74 67
e 74 71
e 74 72
e 75 3
e 75 5
e 75 8
e 75 12
e 75 13
e 75 15
e 75 27
e 75 28
e 75 30
e 75 33
e 75 35
e 75 36
e 75 37
e 75 38
e 75 44
e 75 48
e 75 50
e 75 51
e 75 55
e 75 57
e 75 58
e 75 60
e 75 61
e 75 62
e 75 64
e 75 65
e 75 66
e 75 70
e 76 1
e 76 5
e 76 6
e 76 7
e 76 10
e 76 11
e 76 13
e 76 14
e 76 20
e 76 21
e 76 22
e 76 23
e 76 25
e 76 27
e 76 30
e 76 33
e 76 34
e 76 35
e 76 38
e 76 42
e 76 44
e 76 45
e 76 46
e 76 49
e 76 50
e 76 51
e 76 53
e 76 54
e 76 55
e 76 56
e 76 58
e 76 63
e 76 64
e 76 65
e 76 66
e 76 67
e 76 68
e 76 69
e 76 70
e 76 74
e 76 75
e 77 2
e 77 3
e 77 4
e 77 6
e 77 8
e 77 12
e 77 14
e 77 15
e 77 17
e 77 18
e 77 19
e 77 21
e 77 22
e 77 23
e 77 24
e 77 26
e 77 27
e 77 31
e 77 32
e 77 33
e 77 35
e 77 36
e 77 37
e 77 38
e 77 39
e 77 40
e 77 41
e 77 44
e 77 47
e 77 48
e 77 49
e 77 50
e 77 51
e 77 57
e 77 58
e 77 59
e 77 60
e 77 61
e 77 63
e 77 66
e 77 67
e 77 68
e 77 71
e 77 72
e 77 73
e 77 75
e 77 76
e 78 3
e 78 4
e 78 5
e 78 6
e 78 10
e 78 11
e 78 17
e 78 18
e 78 19
e 78 20
e 78 22
e 78 23
e 78 24
e 78 25
e 78 28
e 78 29
e 78 30
e 78 33
e 78 34
e 78 35
e 78 37
e 78 39
e 78 40
e 78 41
e 78 42
e 78 44
e 78 45
e 78 48
e 78 51
e 78 52
e 78 61
e 78 68
e 78 69
e 78 70
e 78 73
e 78 74
e 78 76
e 79 1
e 79 2
e 79 3
e 79 4
e 79 8
e 79 9
e 79 12
e 79 13
e 79 14
e 79 16
e 79 19
e 79 20
e 79 22
e 79 23
e 79 25
e 79 26
e 79 29
e 79 30
e 79 31
e 79 32
e 79 37
e 79 38
e 79 39
e 79 40
e 79 42
e 79 45
e 79 50
e 79 51
e 79 53
e 79 54
e 79 55
e 79 56
e 79 58
e 79 59
e 79 61
e 79 63
e 79 66
e 79 68
e 79 70
e 79 71
e 79 73
e 79 74
e 79 78
e 80 1
e 80 2
e 80 4
e 80 5
e 80 9
e 80 11
e 80 16
e 80 17
e 80 19
e 80 20
e 80 21
e 80 22
e 80 23
e 80 28
e 80 30
e 80 33
e 80 36
e 80 39
e 80 42
e 80 43
e 80 49
e 80 50
e 80 51
e 80 53
e 80 55
e 80 58
e 80 59
e 80 60
e 80 62
e 80 63
e 80 65
e 80 67
e 80 68
e 80 69
e 80 71
e 80 73
e 80 75
e 80 76
e 80 78
e 80 79